p cnf 10 44
-7 -1 4 0
6 7 -4 0
-3 -7 -5 0
9 7 6 0
-6 7 10 0
8 -7 3 0
-1 3 -2 0
-8 10 9 0
10 -4 1 0
-9 -5 -8 0
7 3 9 0
10 9 -6 0
-1 3 -2 0
4 2 -8 0
-9 2 10 0
6 -5 -2 0
-5 -1 6 0
-4 10 2 0
6 4 -3 0
3 -6 -9 0
-6 -5 -7 0
-8 6 -4 0
8 -7 3 0
4 -3 -1 0
8 -5 4 0
10 -8 9 0
9 1 -10 0
-1 5 3 0
10 4 -5 0
5 3 8 0
3 -4 -6 0
-10 -9 1 0
-9 -6 7 0
-6 -8 2 0
-2 -5 -9 0
-10 -1 -6 0
-4 2 10 0
4 -8 -5 0
-3 -8 -7 0
-2 -10 -7 0
-4 -5 -3 0
7 -8 4 0
-8 2 -6 0
-4 -2 -3 0
